language ESSENCE' 1.0
letting shiftRequirements = [[8, 1, 27, 8], [8, 1, 27, 8], [8, 1, 2, 33], [8, 1, 2, 33], [1, 1, 2, 40], [35, 1, 1, 7], [35, 1, 1, 7]]
letting numberOfWeeks = 44
letting s_min = 2
letting s_max = 3
